23.94 16.17
64.51 32.24
29.76 14.36
69.48 85.65
80.54 5.74
50.44 71.27
97.30 52.05
5.89 2.13
0.62 15.75
37.12 30.48
38.23 31.01
36.58 85.66
15.25 15.92
52.58 11.44
65.97 46.12
9.81 29.32
62.61 72.06
43.77 16.57
89.47 80.87
34.80 5.49
20.90 22.44
39.80 42.25
84.18 36.60
53.61 17.54
31.92 15.86
